9186
1474
8050
3650
5357
8930
554
5045
1850
4323
3550
3521
7541
2628
8596
754
9108
9714
5688
5153
5224
8446
401
5587
3551
6399
6873
5632
6059
10066
4478
7151
778
1832
5753
1845
1221
6035
2234
2705
1656
3297
3367
3041
2586
4910
6921
530
875
635
1991
